[runlim] version:		1.10
[runlim] time limit:		1800 seconds
[runlim] real time limit:	1800 seconds
[runlim] space limit:		30000 MB
[runlim] argv[0]:		/home/hvanh28/Minizinc/MiniZincIDE-2.8.6-bundle-linux-x86_64/bin/minizinc
[runlim] argv[1]:		--solver
[runlim] argv[2]:		Chuffed
[runlim] argv[3]:		--time-limit
[runlim] argv[4]:		1800000
[runlim] argv[5]:		--output-to-file
[runlim] argv[6]:		2/X-can__715-1.log
[runlim] argv[7]:		--output-time
[runlim] argv[8]:		--statistics
[runlim] argv[9]:		CP-MZ-Chuffed.mzn
[runlim] argv[10]:		X-can__715.dzn
[runlim] start:			Mon Oct  7 14:37:03 2024
[runlim] main pid:		551236
[runlim] log captured:
% Generated FlatZinc statistics:
%%%mzn-stat: paths=0
%%%mzn-stat: flatIntVars=6666
%%%mzn-stat: flatIntConstraints=8926
%%%mzn-stat: method="maximize"
%%%mzn-stat: flatTime=0.386342
%%%mzn-stat-end
WARNING: the --time-out flag has recently been changed.The time-out is now provided in milliseconds instead of seconds
[runlim] sample:		10.0 time, 10.1 real, 1608.9 MB
[runlim] sample:		20.0 time, 20.1 real, 1634.6 MB
[runlim] sample:		30.0 time, 30.1 real, 1652.0 MB
[runlim] sample:		40.0 time, 40.1 real, 1666.5 MB
[runlim] sample:		50.0 time, 50.1 real, 1679.1 MB
[runlim] sample:		60.0 time, 60.1 real, 1695.1 MB
[runlim] sample:		70.0 time, 70.1 real, 1706.3 MB
[runlim] sample:		80.0 time, 80.1 real, 1715.8 MB
[runlim] sample:		90.0 time, 90.1 real, 1725.8 MB
[runlim] sample:		100.0 time, 100.1 real, 1736.1 MB
[runlim] sample:		110.0 time, 110.1 real, 1743.5 MB
[runlim] sample:		120.0 time, 120.1 real, 1755.7 MB
[runlim] sample:		130.0 time, 130.1 real, 1765.7 MB
[runlim] sample:		140.0 time, 140.1 real, 1772.7 MB
[runlim] sample:		150.0 time, 150.1 real, 1780.3 MB
[runlim] sample:		160.0 time, 160.1 real, 1791.6 MB
[runlim] sample:		170.0 time, 170.1 real, 1795.7 MB
[runlim] sample:		180.0 time, 180.1 real, 1804.9 MB
[runlim] sample:		189.9 time, 190.1 real, 1814.2 MB
[runlim] sample:		199.9 time, 200.1 real, 1818.5 MB
[runlim] sample:		209.9 time, 210.1 real, 1822.1 MB
[runlim] sample:		219.9 time, 220.1 real, 1828.5 MB
[runlim] sample:		229.9 time, 230.1 real, 1832.8 MB
[runlim] sample:		239.9 time, 240.1 real, 1839.2 MB
[runlim] sample:		249.9 time, 250.1 real, 1847.9 MB
[runlim] sample:		259.9 time, 260.1 real, 1852.6 MB
[runlim] sample:		269.9 time, 270.1 real, 1857.9 MB
[runlim] sample:		279.9 time, 280.1 real, 1865.9 MB
[runlim] sample:		289.9 time, 290.1 real, 1869.2 MB
[runlim] sample:		299.9 time, 300.1 real, 1878.7 MB
[runlim] sample:		309.9 time, 310.1 real, 1885.1 MB
[runlim] sample:		319.9 time, 320.1 real, 1892.5 MB
[runlim] sample:		329.9 time, 330.1 real, 1897.4 MB
[runlim] sample:		339.9 time, 340.1 real, 1900.5 MB
[runlim] sample:		349.9 time, 350.1 real, 1908.1 MB
[runlim] sample:		359.9 time, 360.1 real, 1911.5 MB
[runlim] sample:		369.9 time, 370.1 real, 1915.6 MB
[runlim] sample:		379.9 time, 380.1 real, 1919.7 MB
[runlim] sample:		389.9 time, 390.1 real, 1924.3 MB
[runlim] sample:		399.9 time, 400.1 real, 1932.7 MB
[runlim] sample:		409.9 time, 410.1 real, 1933.7 MB
[runlim] sample:		419.9 time, 420.1 real, 1938.0 MB
[runlim] sample:		429.9 time, 430.1 real, 1942.7 MB
[runlim] sample:		439.9 time, 440.1 real, 1956.0 MB
[runlim] sample:		449.9 time, 450.1 real, 1962.2 MB
[runlim] sample:		459.9 time, 460.1 real, 1967.3 MB
[runlim] sample:		469.9 time, 470.1 real, 1970.4 MB
[runlim] sample:		479.9 time, 480.1 real, 1975.2 MB
[runlim] sample:		489.9 time, 490.1 real, 1978.0 MB
[runlim] sample:		499.9 time, 500.1 real, 1980.1 MB
[runlim] sample:		509.9 time, 510.1 real, 1989.8 MB
[runlim] sample:		519.9 time, 520.1 real, 1991.4 MB
[runlim] sample:		529.9 time, 530.1 real, 1999.6 MB
[runlim] sample:		539.9 time, 540.1 real, 2005.2 MB
[runlim] sample:		549.9 time, 550.1 real, 2009.3 MB
[runlim] sample:		559.9 time, 560.1 real, 2010.3 MB
[runlim] sample:		569.9 time, 570.1 real, 2013.2 MB
[runlim] sample:		579.9 time, 580.1 real, 2016.8 MB
[runlim] sample:		589.9 time, 590.1 real, 2016.8 MB
[runlim] sample:		599.9 time, 600.1 real, 2024.2 MB
[runlim] sample:		609.9 time, 610.1 real, 2027.0 MB
[runlim] sample:		619.9 time, 620.1 real, 2032.4 MB
[runlim] sample:		629.9 time, 630.1 real, 2040.1 MB
[runlim] sample:		639.9 time, 640.1 real, 2042.8 MB
[runlim] sample:		649.9 time, 650.1 real, 2043.8 MB
[runlim] sample:		659.9 time, 660.1 real, 2047.7 MB
[runlim] sample:		669.9 time, 670.1 real, 2052.0 MB
[runlim] sample:		679.9 time, 680.1 real, 2055.1 MB
[runlim] sample:		689.9 time, 690.1 real, 2057.9 MB
[runlim] sample:		699.9 time, 700.1 real, 2065.2 MB
[runlim] sample:		709.9 time, 710.1 real, 2067.2 MB
[runlim] sample:		719.9 time, 720.1 real, 2073.4 MB
[runlim] sample:		729.9 time, 730.1 real, 2076.2 MB
[runlim] sample:		739.9 time, 740.1 real, 2076.2 MB
[runlim] sample:		749.9 time, 750.1 real, 2088.2 MB
[runlim] sample:		759.9 time, 760.1 real, 2090.0 MB
[runlim] sample:		769.9 time, 770.1 real, 2096.9 MB
[runlim] sample:		779.9 time, 780.1 real, 2098.2 MB
[runlim] sample:		789.9 time, 790.1 real, 2099.4 MB
[runlim] sample:		799.9 time, 800.1 real, 2102.5 MB
[runlim] sample:		809.9 time, 810.1 real, 2107.2 MB
[runlim] sample:		819.9 time, 820.1 real, 2111.0 MB
[runlim] sample:		829.9 time, 830.1 real, 2111.3 MB
[runlim] sample:		839.9 time, 840.1 real, 2119.2 MB
[runlim] sample:		849.9 time, 850.1 real, 2122.0 MB
[runlim] sample:		859.9 time, 860.1 real, 2129.4 MB
[runlim] sample:		869.9 time, 870.1 real, 2132.7 MB
[runlim] sample:		879.9 time, 880.1 real, 2135.0 MB
[runlim] sample:		889.9 time, 890.1 real, 2137.0 MB
[runlim] sample:		899.9 time, 900.1 real, 2137.7 MB
[runlim] sample:		909.9 time, 910.1 real, 2145.7 MB
[runlim] sample:		919.9 time, 920.1 real, 2146.7 MB
[runlim] sample:		929.9 time, 930.1 real, 2148.0 MB
[runlim] sample:		939.9 time, 940.1 real, 2150.8 MB
[runlim] sample:		949.9 time, 950.1 real, 2152.4 MB
[runlim] sample:		959.8 time, 960.1 real, 2152.9 MB
[runlim] sample:		969.8 time, 970.1 real, 2154.9 MB
[runlim] sample:		979.9 time, 980.1 real, 2159.3 MB
[runlim] sample:		989.9 time, 990.1 real, 2162.9 MB
[runlim] sample:		999.9 time, 1000.1 real, 2165.2 MB
[runlim] sample:		1009.8 time, 1010.1 real, 2169.8 MB
[runlim] sample:		1019.8 time, 1020.1 real, 2170.0 MB
[runlim] sample:		1029.8 time, 1030.1 real, 2172.1 MB
[runlim] sample:		1039.8 time, 1040.1 real, 2178.0 MB
[runlim] sample:		1049.8 time, 1050.1 real, 2183.1 MB
[runlim] sample:		1059.8 time, 1060.1 real, 2183.4 MB
[runlim] sample:		1069.8 time, 1070.1 real, 2187.0 MB
[runlim] sample:		1079.8 time, 1080.1 real, 2191.8 MB
[runlim] sample:		1089.8 time, 1090.1 real, 2194.6 MB
[runlim] sample:		1099.8 time, 1100.1 real, 2194.9 MB
[runlim] sample:		1109.8 time, 1110.1 real, 2199.0 MB
[runlim] sample:		1119.8 time, 1120.1 real, 2201.5 MB
[runlim] sample:		1129.8 time, 1130.1 real, 2205.7 MB
[runlim] sample:		1139.8 time, 1140.1 real, 2205.9 MB
[runlim] sample:		1149.8 time, 1150.1 real, 2209.0 MB
[runlim] sample:		1159.8 time, 1160.1 real, 2209.8 MB
[runlim] sample:		1169.8 time, 1170.1 real, 2213.3 MB
[runlim] sample:		1179.8 time, 1180.1 real, 2216.4 MB
[runlim] sample:		1189.8 time, 1190.1 real, 2218.8 MB
[runlim] sample:		1199.8 time, 1200.1 real, 2224.6 MB
[runlim] sample:		1209.8 time, 1210.1 real, 2225.1 MB
[runlim] sample:		1219.8 time, 1220.1 real, 2227.9 MB
[runlim] sample:		1229.8 time, 1230.1 real, 2229.5 MB
[runlim] sample:		1239.8 time, 1240.1 real, 2232.0 MB
[runlim] sample:		1249.8 time, 1250.1 real, 2232.0 MB
[runlim] sample:		1259.8 time, 1260.1 real, 2234.3 MB
[runlim] sample:		1269.8 time, 1270.1 real, 2238.7 MB
[runlim] sample:		1279.8 time, 1280.1 real, 2242.3 MB
[runlim] sample:		1289.8 time, 1290.1 real, 2244.1 MB
[runlim] sample:		1299.8 time, 1300.1 real, 2248.7 MB
[runlim] sample:		1309.8 time, 1310.1 real, 2252.1 MB
[runlim] sample:		1319.8 time, 1320.1 real, 2253.1 MB
[runlim] sample:		1329.8 time, 1330.1 real, 2257.0 MB
[runlim] sample:		1339.8 time, 1340.1 real, 2262.8 MB
[runlim] sample:		1349.8 time, 1350.1 real, 2263.6 MB
[runlim] sample:		1359.8 time, 1360.1 real, 2266.7 MB
[runlim] sample:		1369.8 time, 1370.1 real, 2269.9 MB
[runlim] sample:		1379.8 time, 1380.1 real, 2270.6 MB
[runlim] sample:		1389.8 time, 1390.1 real, 2273.5 MB
[runlim] sample:		1399.8 time, 1400.1 real, 2282.1 MB
[runlim] sample:		1409.8 time, 1410.1 real, 2282.1 MB
[runlim] sample:		1419.8 time, 1420.1 real, 2282.6 MB
[runlim] sample:		1429.8 time, 1430.1 real, 2288.4 MB
[runlim] sample:		1439.8 time, 1440.1 real, 2288.4 MB
[runlim] sample:		1449.8 time, 1450.1 real, 2290.7 MB
[runlim] sample:		1459.8 time, 1460.1 real, 2297.7 MB
[runlim] sample:		1469.8 time, 1470.1 real, 2298.7 MB
[runlim] sample:		1479.8 time, 1480.1 real, 2300.5 MB
[runlim] sample:		1489.8 time, 1490.1 real, 2305.2 MB
[runlim] sample:		1499.8 time, 1500.1 real, 2309.0 MB
[runlim] sample:		1509.8 time, 1510.1 real, 2312.3 MB
[runlim] sample:		1519.8 time, 1520.1 real, 2320.2 MB
[runlim] sample:		1529.8 time, 1530.1 real, 2320.4 MB
[runlim] sample:		1539.8 time, 1540.1 real, 2321.2 MB
[runlim] sample:		1549.8 time, 1550.1 real, 2325.8 MB
[runlim] sample:		1559.8 time, 1560.1 real, 2328.4 MB
[runlim] sample:		1569.8 time, 1570.1 real, 2331.7 MB
[runlim] sample:		1579.8 time, 1580.1 real, 2339.6 MB
[runlim] sample:		1589.8 time, 1590.1 real, 2342.7 MB
[runlim] sample:		1599.8 time, 1600.1 real, 2342.7 MB
[runlim] sample:		1609.8 time, 1610.1 real, 2342.7 MB
[runlim] sample:		1619.8 time, 1620.1 real, 2343.5 MB
[runlim] sample:		1629.8 time, 1630.1 real, 2348.6 MB
[runlim] sample:		1639.8 time, 1640.1 real, 2348.6 MB
[runlim] sample:		1649.8 time, 1650.1 real, 2348.6 MB
[runlim] sample:		1659.8 time, 1660.1 real, 2354.1 MB
[runlim] sample:		1669.8 time, 1670.1 real, 2355.9 MB
[runlim] sample:		1679.8 time, 1680.1 real, 2355.9 MB
[runlim] sample:		1689.8 time, 1690.1 real, 2355.9 MB
[runlim] sample:		1699.8 time, 1700.1 real, 2357.9 MB
[runlim] sample:		1709.8 time, 1710.1 real, 2357.9 MB
[runlim] sample:		1719.8 time, 1720.1 real, 2358.1 MB
[runlim] sample:		1729.8 time, 1730.1 real, 2361.5 MB
[runlim] sample:		1739.8 time, 1740.1 real, 2361.5 MB
[runlim] sample:		1749.8 time, 1750.1 real, 2365.8 MB
[runlim] sample:		1759.8 time, 1760.1 real, 2368.7 MB
[runlim] sample:		1769.8 time, 1770.1 real, 2370.2 MB
[runlim] sample:		1779.8 time, 1780.1 real, 2378.4 MB
[runlim] sample:		1789.8 time, 1790.1 real, 2378.4 MB
[runlim] sample:		1799.8 time, 1800.1 real, 2378.7 MB
ùg[runlim] end:			Mon Oct  7 15:07:03 2024
[runlim] status:		out of time
[runlim] result:		2
[runlim] children:		17996
[runlim] real:			1800.07 seconds
[runlim] time:			1799.75 seconds
[runlim] space:			2378.7 MB
[runlim] samples:		18000
